258 4 5 264 9 10 17 18 21 22 284 285 31 288 33 35 291 36 294 297 298 300 45 304 50 307 53 310 56 313 314 315 61 62 319 323 325 70 330 75 77 340 84 342 93 94 351 352 355 356 358 359 105 362 108 364 109 110 366 111 369 114 115 377 378 127 383 384 385 134 390 136 392 394 397 398 143 144 403 153 409 410 411 158 160 417 162 167 426 170 173 174 431 432 434 436 184 186 444 445 195 199 204 205 206 211 213 215 216 223 228 230 232 233 242 249 251 254 